
Log started (V11.0.0) Sun Apr 13 16:55:52 2008

Tried aggregator 1 time.
Reduced MIP has 520 rows, 10001 columns, and 20020 nonzeros.
Presolve time =    0.08 sec.
Clique table members: 500.
MIP emphasis: balance optimality and feasibility.
MIP search method: dynamic search.
Parallel mode: none, using 1 thread.
Root relaxation solution time =    0.27 sec.

        Nodes                                         Cuts/
   Node  Left     Objective  IInf  Best Integer     Best Node    ItCnt     Gap

*     0+    0                        25303.0000      133.7256      761   99.47%
*     0+    0                          147.0000      133.7256      761    9.03%
      0     0      134.0000    42      147.0000      Fract: 9      798    8.84%
*     0+    0                          145.0000      134.0000      798    7.59%
      0     0      134.0000    43      145.0000     Covers: 1      814    7.59%
      0     0      134.0000    43      145.0000     Covers: 1      824    7.59%
*     0+    0                          141.0000      134.0000      824    4.96%
*     0+    0                          140.0000      134.0000      824    4.29%
*     0+    0                          139.0000      134.0000      824    3.60%
      0     2      134.0000    43      139.0000      134.0000      824    3.60%
*    20+   19                          138.0000      134.0000     1608    2.90%
    100    77      136.0000    29      138.0000      134.0000     5557    2.90%
*   130+   77                          137.0000      134.0000     7349    2.19%
    200   111      136.0000    28      137.0000      134.0000    14766    2.19%
*   251+   39                          136.0000      134.0000    20476    1.47%
    300    80      135.0000    29      136.0000      134.0000    22634    1.47%
    400   134    infeasible            136.0000      134.0000    29608    1.47%
    500   192      135.0000    29      136.0000      135.0000    37199    0.74%
    600   197      135.0000    42      136.0000      135.0000    42425    0.74%
    700   193      135.0000    50      136.0000      135.0000    50796    0.74%
    800   209      135.0000    68      136.0000      135.0000    61059    0.74%
    900   274      135.0000    67      136.0000      135.0000    73163    0.74%
   1000   332      135.0000    42      136.0000      135.0000    88944    0.74%
Elapsed time =  44.84 sec. (tree size =  2.94 MB, solutions = 9)
   1100   406      135.0000    49      136.0000      135.0000    98503    0.74%
   1200   479      135.0000    58      136.0000      135.0000   110269    0.74%
   1300   555      135.0000    71      136.0000      135.0000   122727    0.74%
   1400   629    infeasible            136.0000      135.0000   134511    0.74%
   1500   708      135.0000    49      136.0000      135.0000   143721    0.74%
   1600   770      135.0000    36      136.0000      135.0000   157425    0.74%
   1700   836      135.0000    69      136.0000      135.0000   169391    0.74%
   1800   900      135.0000    54      136.0000      135.0000   183789    0.74%
   1900   964      135.0000    39      136.0000      135.0000   197978    0.74%
   2000  1010    infeasible            136.0000      135.0000   215169    0.74%
Elapsed time =  94.13 sec. (tree size = 11.43 MB, solutions = 9)
   2100  1066      135.0000    42      136.0000      135.0000   238258    0.74%
   2200  1142      135.0000    46      136.0000      135.0000   253695    0.74%
   2300  1206      135.0000    55      136.0000      135.0000   272574    0.74%
   2400  1282      135.0000    79      136.0000      135.0000   286816    0.74%
*  2498+    1                          135.0000      135.0000   311591    0.00%

Cover cuts applied:  856
Mixed integer rounding cuts applied:  23
Zero-half cuts applied:  3
Gomory fractional cuts applied:  4

Solution pool: 10 solutions saved.

MIP - Integer optimal solution:  Objective = 1.3500000000e+002
Solution time =  138.97 sec.  Iterations = 311591  Nodes = 2498


Incumbent solution
Variable Name           Solution Value
Cmax                        135.000000
X_1_12                        1.000000
X_2_15                        1.000000
X_3_1                         1.000000
X_4_13                        1.000000
X_5_13                        1.000000
X_6_18                        1.000000
X_7_18                        1.000000
X_8_6                         1.000000
X_9_10                        1.000000
X_10_11                       1.000000
X_11_17                       1.000000
X_12_14                       1.000000
X_13_4                        1.000000
X_14_13                       1.000000
X_15_18                       1.000000
X_16_11                       1.000000
X_17_8                        1.000000
X_18_18                       1.000000
X_19_17                       1.000000
X_20_12                       1.000000
X_21_4                        1.000000
X_22_20                       1.000000
X_23_14                       1.000000
X_24_20                       1.000000
X_25_3                        1.000000
X_26_16                       1.000000
X_27_19                       1.000000
X_28_5                        1.000000
X_29_13                       1.000000
X_30_18                       1.000000
X_31_5                        1.000000
X_32_12                       1.000000
X_33_4                        1.000000
X_34_11                       1.000000
X_35_4                        1.000000
X_36_13                       1.000000
X_37_2                        1.000000
X_38_11                       1.000000
X_39_19                       1.000000
X_40_18                       1.000000
X_41_16                       1.000000
X_42_2                        1.000000
X_43_9                        1.000000
X_44_4                        1.000000
X_45_3                        1.000000
X_46_17                       1.000000
X_47_12                       1.000000
X_48_18                       1.000000
X_49_14                       1.000000
X_50_14                       1.000000
X_51_9                        1.000000
X_52_15                       1.000000
X_53_18                       1.000000
X_54_10                       1.000000
X_55_12                       1.000000
X_56_1                        1.000000
X_57_11                       1.000000
X_58_19                       1.000000
X_59_13                       1.000000
X_60_3                        1.000000
X_61_13                       1.000000
X_62_2                        1.000000
X_63_18                       1.000000
X_64_7                        1.000000
X_65_4                        1.000000
X_66_3                        1.000000
X_67_7                        1.000000
X_68_5                        1.000000
X_69_15                       1.000000
X_70_13                       1.000000
X_71_6                        1.000000
X_72_13                       1.000000
X_73_6                        1.000000
X_74_20                       1.000000
X_75_16                       1.000000
X_76_10                       1.000000
X_77_2                        1.000000
X_78_3                        1.000000
X_79_5                        1.000000
X_80_4                        1.000000
X_81_20                       1.000000
X_82_3                        1.000000
X_83_1                        1.000000
X_84_20                       1.000000
X_85_7                        1.000000
X_86_19                       1.000000
X_87_20                       1.000000
X_88_4                        1.000000
X_89_12                       1.000000
X_90_4                        1.000000
X_91_19                       1.000000
X_92_19                       1.000000
X_93_6                        1.000000
X_94_5                        1.000000
X_95_11                       1.000000
X_96_6                        1.000000
X_97_9                        1.000000
X_98_19                       1.000000
X_99_19                       1.000000
X_100_1                       1.000000
X_101_13                      1.000000
X_102_6                       1.000000
X_103_7                       1.000000
X_104_8                       1.000000
X_105_17                      1.000000
X_106_10                      1.000000
X_107_11                      1.000000
X_108_13                      1.000000
X_109_16                      1.000000
X_110_13                      1.000000
X_111_3                       1.000000
X_112_11                      1.000000
X_113_16                      1.000000
X_114_14                      1.000000
X_115_11                      1.000000
X_116_7                       1.000000
X_117_20                      1.000000
X_118_15                      1.000000
X_119_20                      1.000000
X_120_19                      1.000000
X_121_9                       1.000000
X_122_4                       1.000000
X_123_2                       1.000000
X_124_17                      1.000000
X_125_19                      1.000000
X_126_4                       1.000000
X_127_20                      1.000000
X_128_13                      1.000000
X_129_16                      1.000000
X_130_15                      1.000000
X_131_6                       1.000000
X_132_9                       1.000000
X_133_2                       1.000000
X_134_11                      1.000000
X_135_16                      1.000000
X_136_5                       1.000000
X_137_9                       1.000000
X_138_10                      1.000000
X_139_12                      1.000000
X_140_19                      1.000000
X_141_15                      1.000000
X_142_1                       1.000000
X_143_12                      1.000000
X_144_14                      1.000000
X_145_10                      1.000000
X_146_12                      1.000000
X_147_17                      1.000000
X_148_12                      1.000000
X_149_3                       1.000000
X_150_11                      1.000000
X_151_4                       1.000000
X_152_16                      1.000000
X_153_16                      1.000000
X_154_2                       1.000000
X_155_20                      1.000000
X_156_6                       1.000000
X_157_14                      1.000000
X_158_6                       1.000000
X_159_17                      1.000000
X_160_1                       1.000000
X_161_19                      1.000000
X_162_8                       1.000000
X_163_17                      1.000000
X_164_3                       1.000000
X_165_3                       1.000000
X_166_2                       1.000000
X_167_12                      1.000000
X_168_15                      1.000000
X_169_2                       1.000000
X_170_9                       1.000000
X_171_20                      1.000000
X_172_6                       1.000000
X_173_6                       1.000000
X_174_4                       1.000000
X_175_4                       1.000000
X_176_18                      1.000000
X_177_9                       1.000000
X_178_18                      1.000000
X_179_7                       1.000000
X_180_2                       1.000000
X_181_14                      1.000000
X_182_5                       1.000000
X_183_13                      1.000000
X_184_15                      1.000000
X_185_8                       1.000000
X_186_3                       1.000000
X_187_17                      1.000000
X_188_9                       1.000000
X_189_6                       1.000000
X_190_12                      1.000000
X_191_7                       1.000000
X_192_14                      1.000000
X_193_1                       1.000000
X_194_19                      1.000000
X_195_9                       1.000000
X_196_6                       1.000000
X_197_5                       1.000000
X_198_13                      1.000000
X_199_4                       1.000000
X_200_12                      1.000000
X_201_17                      1.000000
X_202_2                       1.000000
X_203_20                      1.000000
X_204_8                       1.000000
X_205_7                       1.000000
X_206_13                      1.000000
X_207_10                      1.000000
X_208_14                      1.000000
X_209_20                      1.000000
X_210_14                      1.000000
X_211_10                      1.000000
X_212_14                      1.000000
X_213_17                      1.000000
X_214_18                      1.000000
X_215_3                       1.000000
X_216_12                      1.000000
X_217_7                       1.000000
X_218_20                      1.000000
X_219_4                       1.000000
X_220_4                       1.000000
X_221_7                       1.000000
X_222_1                       1.000000
X_223_17                      1.000000
X_224_16                      1.000000
X_225_1                       1.000000
X_226_14                      1.000000
X_227_14                      1.000000
X_228_2                       1.000000
X_229_20                      1.000000
X_230_8                       1.000000
X_231_16                      1.000000
X_232_14                      1.000000
X_233_8                       1.000000
X_234_12                      1.000000
X_235_12                      1.000000
X_236_8                       1.000000
X_237_19                      1.000000
X_238_14                      1.000000
X_239_8                       1.000000
X_240_20                      1.000000
X_241_10                      1.000000
X_242_9                       1.000000
X_243_17                      1.000000
X_244_9                       1.000000
X_245_2                       1.000000
X_246_9                       1.000000
X_247_10                      1.000000
X_248_19                      1.000000
X_249_13                      1.000000
X_250_4                       1.000000
X_251_19                      1.000000
X_252_12                      1.000000
X_253_16                      1.000000
X_254_2                       1.000000
X_255_6                       1.000000
X_256_17                      1.000000
X_257_5                       1.000000
X_258_19                      1.000000
X_259_7                       1.000000
X_260_1                       1.000000
X_261_15                      1.000000
X_262_14                      1.000000
X_263_12                      1.000000
X_264_19                      1.000000
X_265_9                       1.000000
X_266_10                      1.000000
X_267_10                      1.000000
X_268_15                      1.000000
X_269_4                       1.000000
X_270_19                      1.000000
X_271_11                      1.000000
X_272_15                      1.000000
X_273_7                       1.000000
X_274_7                       1.000000
X_275_13                      1.000000
X_276_15                      1.000000
X_277_3                       1.000000
X_278_12                      1.000000
X_279_4                       1.000000
X_280_1                       1.000000
X_281_18                      1.000000
X_282_8                       1.000000
X_283_6                       1.000000
X_284_7                       1.000000
X_285_14                      1.000000
X_286_9                       1.000000
X_287_12                      1.000000
X_288_2                       1.000000
X_289_7                       1.000000
X_290_18                      1.000000
X_291_13                      1.000000
X_292_9                       1.000000
X_293_16                      1.000000
X_294_10                      1.000000
X_295_16                      1.000000
X_296_16                      1.000000
X_297_14                      1.000000
X_298_16                      1.000000
X_299_10                      1.000000
X_300_3                       1.000000
X_301_16                      1.000000
X_302_2                       1.000000
X_303_10                      1.000000
X_304_8                       1.000000
X_305_9                       1.000000
X_306_1                       1.000000
X_307_7                       1.000000
X_308_5                       1.000000
X_309_9                       1.000000
X_310_15                      1.000000
X_311_11                      1.000000
X_312_9                       1.000000
X_313_11                      1.000000
X_314_20                      1.000000
X_315_20                      1.000000
X_316_2                       1.000000
X_317_1                       1.000000
X_318_7                       1.000000
X_319_1                       1.000000
X_320_14                      1.000000
X_321_12                      1.000000
X_322_15                      1.000000
X_323_1                       1.000000
X_324_16                      1.000000
X_325_14                      1.000000
X_326_20                      1.000000
X_327_10                      1.000000
X_328_20                      1.000000
X_329_11                      1.000000
X_330_18                      1.000000
X_331_15                      1.000000
X_332_4                       1.000000
X_333_18                      1.000000
X_334_19                      1.000000
X_335_11                      1.000000
X_336_18                      1.000000
X_337_8                       1.000000
X_338_5                       1.000000
X_339_19                      1.000000
X_340_6                       1.000000
X_341_19                      1.000000
X_342_15                      1.000000
X_343_5                       1.000000
X_344_1                       1.000000
X_345_3                       1.000000
X_346_7                       1.000000
X_347_11                      1.000000
X_348_13                      1.000000
X_349_1                       1.000000
X_350_5                       1.000000
X_351_5                       1.000000
X_352_14                      1.000000
X_353_10                      1.000000
X_354_5                       1.000000
X_355_1                       1.000000
X_356_7                       1.000000
X_357_3                       1.000000
X_358_20                      1.000000
X_359_3                       1.000000
X_360_9                       1.000000
X_361_18                      1.000000
X_362_10                      1.000000
X_363_3                       1.000000
X_364_7                       1.000000
X_365_6                       1.000000
X_366_1                       1.000000
X_367_5                       1.000000
X_368_1                       1.000000
X_369_12                      1.000000
X_370_2                       1.000000
X_371_17                      1.000000
X_372_14                      1.000000
X_373_16                      1.000000
X_374_20                      1.000000
X_375_8                       1.000000
X_376_17                      1.000000
X_377_14                      1.000000
X_378_1                       1.000000
X_379_3                       1.000000
X_380_5                       1.000000
X_381_8                       1.000000
X_382_6                       1.000000
X_383_3                       1.000000
X_384_20                      1.000000
X_385_4                       1.000000
X_386_6                       1.000000
X_387_18                      1.000000
X_388_3                       1.000000
X_389_18                      1.000000
X_390_11                      1.000000
X_391_1                       1.000000
X_392_11                      1.000000
X_393_16                      1.000000
X_394_11                      1.000000
X_395_19                      1.000000
X_396_19                      1.000000
X_397_15                      1.000000
X_398_5                       1.000000
X_399_11                      1.000000
X_400_3                       1.000000
X_401_19                      1.000000
X_402_11                      1.000000
X_403_2                       1.000000
X_404_3                       1.000000
X_405_17                      1.000000
X_406_10                      1.000000
X_407_8                       1.000000
X_408_3                       1.000000
X_409_13                      1.000000
X_410_8                       1.000000
X_411_17                      1.000000
X_412_11                      1.000000
X_413_2                       1.000000
X_414_12                      1.000000
X_415_3                       1.000000
X_416_2                       1.000000
X_417_5                       1.000000
X_418_5                       1.000000
X_419_5                       1.000000
X_420_18                      1.000000
X_421_7                       1.000000
X_422_15                      1.000000
X_423_3                       1.000000
X_424_11                      1.000000
X_425_18                      1.000000
X_426_19                      1.000000
X_427_9                       1.000000
X_428_18                      1.000000
X_429_11                      1.000000
X_430_9                       1.000000
X_431_7                       1.000000
X_432_16                      1.000000
X_433_8                       1.000000
X_434_6                       1.000000
X_435_15                      1.000000
X_436_6                       1.000000
X_437_10                      1.000000
X_438_6                       1.000000
X_439_19                      1.000000
X_440_9                       1.000000
X_441_16                      1.000000
X_442_12                      1.000000
X_443_7                       1.000000
X_444_18                      1.000000
X_445_4                       1.000000
X_446_1                       1.000000
X_447_2                       1.000000
X_448_1                       1.000000
X_449_11                      1.000000
X_450_8                       1.000000
X_451_13                      1.000000
X_452_2                       1.000000
X_453_2                       1.000000
X_454_14                      1.000000
X_455_11                      1.000000
X_456_2                       1.000000
X_457_15                      1.000000
X_458_17                      1.000000
X_459_12                      1.000000
X_460_8                       1.000000
X_461_5                       1.000000
X_462_19                      1.000000
X_463_6                       1.000000
X_464_17                      1.000000
X_465_9                       1.000000
X_466_11                      1.000000
X_467_4                       1.000000
X_468_6                       1.000000
X_469_10                      1.000000
X_470_1                       1.000000
X_471_18                      1.000000
X_472_5                       1.000000
X_473_12                      1.000000
X_474_14                      1.000000
X_475_11                      1.000000
X_476_4                       1.000000
X_477_4                       1.000000
X_478_13                      1.000000
X_479_3                       1.000000
X_480_12                      1.000000
X_481_17                      1.000000
X_482_6                       1.000000
X_483_18                      1.000000
X_484_17                      1.000000
X_485_11                      1.000000
X_486_2                       1.000000
X_487_5                       1.000000
X_488_8                       1.000000
X_489_14                      1.000000
X_490_9                       1.000000
X_491_11                      1.000000
X_492_15                      1.000000
X_493_20                      1.000000
X_494_17                      1.000000
X_495_5                       1.000000
X_496_7                       1.000000
X_497_18                      1.000000
X_498_5                       1.000000
X_499_17                      1.000000
X_500_15                      1.000000
All other variables in the range 1-10001 are 0.
